; MLOAD DUP1 MLOAD XOR XOR POP => POP POP
(set-option :produce-proofs true)
; 
(set-info :status unknown)
(declare-fun storage_t ((_ BitVec 256) (_ BitVec 256) (_ BitVec 256) (_ BitVec 256) Int (_ BitVec 256)) (_ BitVec 256))
(declare-fun storage_s ((_ BitVec 256) (_ BitVec 256) (_ BitVec 256) (_ BitVec 256) Int (_ BitVec 256)) (_ BitVec 256))
(declare-fun exc_halt_t (Int) Bool)
(declare-fun exc_halt_s (Int) Bool)
(declare-fun sc_t (Int) (_ BitVec 6))
(declare-fun stack_t ((_ BitVec 256) (_ BitVec 256) (_ BitVec 256) (_ BitVec 256) Int (_ BitVec 6)) (_ BitVec 256))
(declare-fun stack_s ((_ BitVec 256) (_ BitVec 256) (_ BitVec 256) (_ BitVec 256) Int (_ BitVec 6)) (_ BitVec 256))
(declare-fun sc_s (Int) (_ BitVec 6))
(declare-fun used_gas_t ((_ BitVec 256) (_ BitVec 256) (_ BitVec 256) (_ BitVec 256) Int) Int)
(declare-fun used_gas_s ((_ BitVec 256) (_ BitVec 256) (_ BitVec 256) (_ BitVec 256) Int) Int)
(declare-fun f_MLOAD ((_ BitVec 256) (_ BitVec 256) (_ BitVec 256) (_ BitVec 256) (_ BitVec 256)) (_ BitVec 256))
(assert
 (exists ((x_0 (_ BitVec 256)) (x_1 (_ BitVec 256)) (x_MLOAD_0 (_ BitVec 256)) (x_MLOAD_1 (_ BitVec 256)) )(let (($x5244 (forall ((w (_ BitVec 256)) )(let ((?x5250 (storage_t x_0 x_1 x_MLOAD_0 x_MLOAD_1 2 w)))
 (let ((?x5243 (storage_s x_0 x_1 x_MLOAD_0 x_MLOAD_1 6 w)))
 (= ?x5243 ?x5250))))
 ))
 (let (($x903 (exc_halt_t 2)))
 (let (($x772 (exc_halt_s 6)))
 (let (($x5703 (= $x772 $x903)))
 (let (($x7227 (forall ((n (_ BitVec 6)) )(let ((?x4056 (sc_t 2)))
 (let (($x9398 (bvsle ?x4056 n)))
 (let ((?x5237 (stack_t x_0 x_1 x_MLOAD_0 x_MLOAD_1 2 n)))
 (let ((?x5238 (stack_s x_0 x_1 x_MLOAD_0 x_MLOAD_1 6 n)))
 (let (($x5175 (= ?x5238 ?x5237)))
 (or $x5175 $x9398)))))))
 ))
 (let ((?x4056 (sc_t 2)))
 (let ((?x926 (sc_s 6)))
 (let (($x5586 (= ?x926 ?x4056)))
 (let ((?x5221 (used_gas_t x_0 x_1 x_MLOAD_0 x_MLOAD_1 0)))
 (let ((?x5147 (used_gas_s x_0 x_1 x_MLOAD_0 x_MLOAD_1 0)))
 (let (($x5223 (= ?x5147 ?x5221)))
 (let (($x7535 (forall ((w (_ BitVec 256)) )(let ((?x5229 (storage_t x_0 x_1 x_MLOAD_0 x_MLOAD_1 0 w)))
 (let ((?x2450 (storage_s x_0 x_1 x_MLOAD_0 x_MLOAD_1 0 w)))
 (= ?x2450 ?x5229))))
 ))
 (let (($x56 (exc_halt_t 0)))
 (let (($x57 (exc_halt_s 0)))
 (let (($x58 (= $x57 $x56)))
 (let (($x7390 (forall ((n (_ BitVec 6)) )(let ((?x7531 (stack_t x_0 x_1 x_MLOAD_0 x_MLOAD_1 0 n)))
 (let ((?x7329 (stack_s x_0 x_1 x_MLOAD_0 x_MLOAD_1 0 n)))
 (let (($x7552 (= ?x7329 ?x7531)))
 (let ((?x63 (sc_t 0)))
 (let (($x3168 (bvsle ?x63 n)))
 (or $x3168 $x7552)))))))
 ))
 (let ((?x63 (sc_t 0)))
 (let ((?x72 (sc_s 0)))
 (let (($x73 (= ?x72 ?x63)))
 (let (($x7383 (= $x903 (or (exc_halt_t 1) (not (bvsle (_ bv0 6) (bvadd (_ bv63 6) (sc_t 1))))))))
 (let (($x7394 (forall ((w (_ BitVec 256)) )(let ((?x7551 (storage_t x_0 x_1 x_MLOAD_0 x_MLOAD_1 1 w)))
 (let ((?x5250 (storage_t x_0 x_1 x_MLOAD_0 x_MLOAD_1 2 w)))
 (= ?x5250 ?x7551))))
 ))
 (let (($x6257 (forall ((n (_ BitVec 6)) )(let ((?x7489 (stack_t x_0 x_1 x_MLOAD_0 x_MLOAD_1 1 n)))
 (let ((?x5237 (stack_t x_0 x_1 x_MLOAD_0 x_MLOAD_1 2 n)))
 (or (= ?x5237 ?x7489) (bvsle (bvadd (_ bv63 6) (sc_t 1)) n)))))
 ))
 (let (($x7415 (= (used_gas_t x_0 x_1 x_MLOAD_0 x_MLOAD_1 2) (+ 2 (used_gas_t x_0 x_1 x_MLOAD_0 x_MLOAD_1 1)))))
 (let (($x1920 (exc_halt_t 1)))
 (let (($x7803 (= $x1920 (or $x56 (not (bvsle (_ bv0 6) (bvadd (_ bv63 6) ?x63)))))))
 (let (($x2332 (forall ((w (_ BitVec 256)) )(let ((?x5229 (storage_t x_0 x_1 x_MLOAD_0 x_MLOAD_1 0 w)))
 (let ((?x7551 (storage_t x_0 x_1 x_MLOAD_0 x_MLOAD_1 1 w)))
 (= ?x7551 ?x5229))))
 ))
 (let (($x2335 (forall ((n (_ BitVec 6)) )(let ((?x63 (sc_t 0)))
 (let ((?x8804 (bvadd (_ bv63 6) ?x63)))
 (let (($x7696 (bvsle ?x8804 n)))
 (let ((?x7531 (stack_t x_0 x_1 x_MLOAD_0 x_MLOAD_1 0 n)))
 (let ((?x7489 (stack_t x_0 x_1 x_MLOAD_0 x_MLOAD_1 1 n)))
 (or (= ?x7489 ?x7531) $x7696)))))))
 ))
 (let (($x7406 (= $x772 (or (exc_halt_s 5) (not (bvsle (_ bv0 6) (bvadd (_ bv63 6) (sc_s 5))))))))
 (let (($x2375 (forall ((w (_ BitVec 256)) )(let ((?x7586 (storage_s x_0 x_1 x_MLOAD_0 x_MLOAD_1 5 w)))
 (let ((?x5243 (storage_s x_0 x_1 x_MLOAD_0 x_MLOAD_1 6 w)))
 (= ?x5243 ?x7586))))
 ))
 (let (($x2331 (forall ((n (_ BitVec 6)) )(let ((?x7589 (stack_s x_0 x_1 x_MLOAD_0 x_MLOAD_1 5 n)))
 (let ((?x5238 (stack_s x_0 x_1 x_MLOAD_0 x_MLOAD_1 6 n)))
 (or (bvsle (bvadd (_ bv63 6) (sc_s 5)) n) (= ?x5238 ?x7589)))))
 ))
 (let (($x7433 (= (used_gas_s x_0 x_1 x_MLOAD_0 x_MLOAD_1 6) (+ 2 (used_gas_s x_0 x_1 x_MLOAD_0 x_MLOAD_1 5)))))
 (let (($x3979 (exc_halt_s 5)))
 (let (($x8589 (= $x3979 (or (exc_halt_s 4) (not (bvsle (_ bv0 6) (bvadd (_ bv62 6) (sc_s 4))))))))
 (let (($x7426 (forall ((w (_ BitVec 256)) )(let ((?x7603 (storage_s x_0 x_1 x_MLOAD_0 x_MLOAD_1 4 w)))
 (let ((?x7586 (storage_s x_0 x_1 x_MLOAD_0 x_MLOAD_1 5 w)))
 (= ?x7586 ?x7603))))
 ))
 (let (($x2309 (forall ((n (_ BitVec 6)) )(let ((?x4305 (sc_s 4)))
 (let ((?x7729 (bvadd (_ bv62 6) ?x4305)))
 (let (($x8689 (bvsle ?x7729 n)))
 (let ((?x7607 (stack_s x_0 x_1 x_MLOAD_0 x_MLOAD_1 4 n)))
 (let ((?x7589 (stack_s x_0 x_1 x_MLOAD_0 x_MLOAD_1 5 n)))
 (or (= ?x7589 ?x7607) $x8689)))))))
 ))
 (let ((?x39 (used_gas_s x_0 x_1 x_MLOAD_0 x_MLOAD_1 5)))
 (let ((?x4305 (sc_s 4)))
 (let ((?x8764 (bvadd (_ bv63 6) ?x4305)))
 (let ((?x7441 (stack_s x_0 x_1 x_MLOAD_0 x_MLOAD_1 4 ?x8764)))
 (let (($x7417 (= (stack_s x_0 x_1 x_MLOAD_0 x_MLOAD_1 5 (bvadd (_ bv63 6) (sc_s 5))) (bvxor ?x7441 (stack_s x_0 x_1 x_MLOAD_0 x_MLOAD_1 4 (bvadd (_ bv62 6) ?x4305))))))
 (let (($x64 (exc_halt_s 4)))
 (let (($x5482 (= $x64 (or (exc_halt_s 3) (not (bvsle (_ bv0 6) (bvadd (_ bv62 6) (sc_s 3))))))))
 (let (($x7431 (forall ((w (_ BitVec 256)) )(let ((?x7625 (storage_s x_0 x_1 x_MLOAD_0 x_MLOAD_1 3 w)))
 (let ((?x7603 (storage_s x_0 x_1 x_MLOAD_0 x_MLOAD_1 4 w)))
 (= ?x7603 ?x7625))))
 ))
 (let (($x7429 (forall ((n (_ BitVec 6)) )(let ((?x275 (sc_s 3)))
 (let ((?x8073 (bvadd (_ bv62 6) ?x275)))
 (let (($x8082 (bvsle ?x8073 n)))
 (let ((?x2366 (stack_s x_0 x_1 x_MLOAD_0 x_MLOAD_1 3 n)))
 (let ((?x7607 (stack_s x_0 x_1 x_MLOAD_0 x_MLOAD_1 4 n)))
 (or (= ?x7607 ?x2366) $x8082)))))))
 ))
 (let ((?x7614 (used_gas_s x_0 x_1 x_MLOAD_0 x_MLOAD_1 4)))
 (let ((?x275 (sc_s 3)))
 (let ((?x8728 (bvadd (_ bv63 6) ?x275)))
 (let ((?x7456 (stack_s x_0 x_1 x_MLOAD_0 x_MLOAD_1 3 ?x8728)))
 (let (($x7443 (= ?x7441 (bvxor ?x7456 (stack_s x_0 x_1 x_MLOAD_0 x_MLOAD_1 3 (bvadd (_ bv62 6) ?x275))))))
 (let (($x292 (exc_halt_s 3)))
 (let (($x8763 (= $x292 (or (exc_halt_s 2) (not (bvsle (_ bv0 6) (bvadd (_ bv63 6) (sc_s 2))))))))
 (let (($x7439 (forall ((w (_ BitVec 256)) )(let ((?x7635 (storage_s x_0 x_1 x_MLOAD_0 x_MLOAD_1 2 w)))
 (let ((?x7625 (storage_s x_0 x_1 x_MLOAD_0 x_MLOAD_1 3 w)))
 (= ?x7625 ?x7635))))
 ))
 (let (($x7449 (forall ((n (_ BitVec 6)) )(let ((?x218 (sc_s 2)))
 (let ((?x9500 (bvadd (_ bv63 6) ?x218)))
 (let (($x8761 (bvsle ?x9500 n)))
 (let ((?x7367 (stack_s x_0 x_1 x_MLOAD_0 x_MLOAD_1 2 n)))
 (let ((?x2366 (stack_s x_0 x_1 x_MLOAD_0 x_MLOAD_1 3 n)))
 (or (= ?x2366 ?x7367) $x8761)))))))
 ))
 (let ((?x218 (sc_s 2)))
 (let (($x8062 (= ?x275 ?x218)))
 (let ((?x7632 (used_gas_s x_0 x_1 x_MLOAD_0 x_MLOAD_1 3)))
 (let ((?x9500 (bvadd (_ bv63 6) ?x218)))
 (let ((?x7466 (stack_s x_0 x_1 x_MLOAD_0 x_MLOAD_1 2 ?x9500)))
 (let (($x8036 (not (= ((_ extract 6 6) (bvadd (_ bv1 7) (concat (_ bv0 1) (sc_s 1)))) (_ bv0 1)))))
 (let (($x6021 (not (bvsle (_ bv0 6) (bvadd (_ bv63 6) (sc_s 1))))))
 (let (($x189 (exc_halt_s 1)))
 (let (($x247 (exc_halt_s 2)))
 (let (($x7541 (forall ((w (_ BitVec 256)) )(let ((?x7345 (storage_s x_0 x_1 x_MLOAD_0 x_MLOAD_1 1 w)))
 (let ((?x7635 (storage_s x_0 x_1 x_MLOAD_0 x_MLOAD_1 2 w)))
 (= ?x7635 ?x7345))))
 ))
 (let (($x7484 (forall ((n (_ BitVec 6)) )(let ((?x154 (sc_s 1)))
 (let ((?x9701 (bvadd (_ bv63 6) ?x154)))
 (let (($x9489 (bvsle ?x9701 n)))
 (let ((?x7341 (stack_s x_0 x_1 x_MLOAD_0 x_MLOAD_1 1 n)))
 (let ((?x7367 (stack_s x_0 x_1 x_MLOAD_0 x_MLOAD_1 2 n)))
 (or (= ?x7367 ?x7341) $x9489)))))))
 ))
 (let (($x8027 (= ?x218 (bvadd (_ bv1 6) (sc_s 1)))))
 (let ((?x7638 (used_gas_s x_0 x_1 x_MLOAD_0 x_MLOAD_1 2)))
 (let ((?x154 (sc_s 1)))
 (let ((?x9701 (bvadd (_ bv63 6) ?x154)))
 (let ((?x7492 (stack_s x_0 x_1 x_MLOAD_0 x_MLOAD_1 1 ?x9701)))
 (let (($x7470 (forall ((w (_ BitVec 256)) )(let ((?x2450 (storage_s x_0 x_1 x_MLOAD_0 x_MLOAD_1 0 w)))
 (let ((?x7345 (storage_s x_0 x_1 x_MLOAD_0 x_MLOAD_1 1 w)))
 (= ?x7345 ?x2450))))
 ))
 (let (($x7469 (forall ((n (_ BitVec 6)) )(let ((?x72 (sc_s 0)))
 (let ((?x7981 (bvadd (_ bv63 6) ?x72)))
 (let (($x7998 (bvsle ?x7981 n)))
 (let ((?x7329 (stack_s x_0 x_1 x_MLOAD_0 x_MLOAD_1 0 n)))
 (let ((?x7341 (stack_s x_0 x_1 x_MLOAD_0 x_MLOAD_1 1 n)))
 (or (= ?x7341 ?x7329) $x7998)))))))
 ))
 (let ((?x7480 (f_MLOAD x_0 x_1 x_MLOAD_0 x_MLOAD_1 (stack_s x_0 x_1 x_MLOAD_0 x_MLOAD_1 0 (bvadd (_ bv63 6) ?x72)))))
 (let (($x7508 (forall ((w0 (_ BitVec 256)) )(let (($x7494 (= (stack_s x_0 x_1 x_MLOAD_0 x_MLOAD_1 2 (bvadd (_ bv63 6) (sc_s 2))) w0)))
 (let (($x7486 (= (stack_s x_0 x_1 x_MLOAD_0 x_MLOAD_1 0 (bvadd (_ bv63 6) (sc_s 0))) w0)))
 (let ((?x7524 (f_MLOAD x_0 x_1 x_MLOAD_0 x_MLOAD_1 w0)))
 (= ?x7524 (ite $x7486 x_MLOAD_0 (ite $x7494 x_MLOAD_1 (_ bv0 256))))))))
 ))
 (let (($x7513 (forall ((w (_ BitVec 256)) )(let ((?x2450 (storage_s x_0 x_1 x_MLOAD_0 x_MLOAD_1 0 w)))
 (= ?x2450 (_ bv0 256))))
 ))
 (let (($x7514 (= ?x5147 0)))
 (let (($x5037 (not $x57)))
 (let (($x7511 (= (stack_s x_0 x_1 x_MLOAD_0 x_MLOAD_1 0 (_ bv1 6)) x_1)))
 (let (($x7517 (= (stack_s x_0 x_1 x_MLOAD_0 x_MLOAD_1 0 (_ bv0 6)) x_0)))
 (let (($x8956 (= ?x72 (_ bv2 6))))
 (and $x8956 $x7517 $x7511 $x5037 $x7514 $x7513 $x7508 (= ?x7492 ?x7480) (= (used_gas_s x_0 x_1 x_MLOAD_0 x_MLOAD_1 1) (+ 3 ?x5147)) (= ?x154 ?x72) $x7469 $x7470 (= $x189 (or $x57 (not (bvsle (_ bv0 6) (bvadd (_ bv63 6) ?x72))))) (= ?x7466 ?x7492) (= (stack_s x_0 x_1 x_MLOAD_0 x_MLOAD_1 2 ?x9701) ?x7492) (= ?x7638 (+ 3 (used_gas_s x_0 x_1 x_MLOAD_0 x_MLOAD_1 1))) $x8027 $x7484 $x7541 (= $x247 (or $x189 $x6021 $x8036)) (= ?x7456 (f_MLOAD x_0 x_1 x_MLOAD_0 x_MLOAD_1 ?x7466)) (= ?x7632 (+ 3 ?x7638)) $x8062 $x7449 $x7439 $x8763 $x7443 (= ?x7614 (+ 3 ?x7632)) (= ?x4305 ?x8728) $x7429 $x7431 $x5482 $x7417 (= ?x39 (+ 3 ?x7614)) (= (sc_s 5) ?x8764) $x2309 $x7426 $x8589 $x7433 (= ?x926 (bvadd (_ bv63 6) (sc_s 5))) $x2331 $x2375 $x7406 (= (used_gas_t x_0 x_1 x_MLOAD_0 x_MLOAD_1 1) (+ 2 ?x5221)) (= (sc_t 1) (bvadd (_ bv63 6) ?x63)) $x2335 $x2332 $x7803 $x7415 (= ?x4056 (bvadd (_ bv63 6) (sc_t 1))) $x6257 $x7394 $x7383 $x73 $x7390 $x58 $x7535 $x5223 (not (and $x5586 $x7227 $x5703 $x5244)))))))))))))))))))))))))))))))))))))))))))))))))))))))))))))))))))))))))))))))))))
 )
(check-sat)
(get-proof)
